(set-logic HORN)


(declare-fun |INV_MAIN_1| ( Int Int Int Int Int Int Int Int Int Int ) Bool)
(declare-fun |CHC_COMP_FALSE| ( ) Bool)
(declare-fun |INV_MAIN_0| ( Int Int Int Int Int Int Int Int ) Bool)

(assert
  (forall ( (A Int) (B Int) (C Int) (D Int) (E Int) (F Int) (G Int) (H Int) ) 
    (=>
      (and
        (and (= E A) (or (not (= G C)) (= H D)) (= F B))
      )
      (INV_MAIN_0 A B C D E F G H)
    )
  )
)
(assert
  (forall ( (A Int) (B Int) (C Int) (D Int) (E Int) (F Int) (G Int) (H Int) (I Int) (J Int) (K Int) (L Int) (M Int) (N Int) (O Int) (P Int) (Q Int) (R Int) (S Int) (T Int) (U Int) (V Int) (W Int) (X Int) (Y Int) (Z Int) (A1 Int) (B1 Int) (C1 Int) (D1 Int) (E1 Int) (F1 Int) (G1 Int) (H1 Int) (I1 Int) (J1 Int) (K1 Int) (L1 Int) (M1 Int) (N1 Int) (O1 Int) (P1 Int) ) 
    (=>
      (and
        (INV_MAIN_0 K L M N O P Q R)
        (INV_MAIN_0 I1 J1 K1 L1 M1 N1 O1 P1)
        (INV_MAIN_0 A1 B1 C1 D1 E1 F1 G1 H1)
        (INV_MAIN_0 S T U V W X Y Z)
        (and (= B A)
     (not (= H1 0))
     (= G1 H)
     (= F1 H)
     (= E1 F)
     (= D1 E)
     (= C1 D)
     (= B1 C)
     (= A1 A)
     (= Z J)
     (= Y I)
     (= X H)
     (= W F)
     (not (= V 0))
     (= U C)
     (= T C)
     (= S A)
     (= R H1)
     (= Q H)
     (= P H)
     (= O F)
     (= N V)
     (= M C)
     (= L C)
     (= K A)
     (= P1 J)
     (= O1 I)
     (= N1 H)
     (= M1 F)
     (= L1 E)
     (= K1 D)
     (= J1 C)
     (= I1 A)
     (or (= H1 J) (not (= I H)))
     (or (= V E) (not (= D C)))
     (= G 0))
      )
      (INV_MAIN_1 A B C D E F G H I J)
    )
  )
)
(assert
  (forall ( (A Int) (B Int) (C Int) (D Int) (E Int) (F Int) (G Int) (H Int) (I Int) (J Int) (K Int) (L Int) (M Int) (N Int) (O Int) (P Int) (Q Int) (R Int) (S Int) (T Int) (U Int) (V Int) (W Int) (X Int) (Y Int) (Z Int) (A1 Int) (B1 Int) (C1 Int) (D1 Int) (E1 Int) (F1 Int) (G1 Int) (H1 Int) (I1 Int) (J1 Int) (K1 Int) (L1 Int) (M1 Int) (N1 Int) (O1 Int) (P1 Int) (Q1 Int) (R1 Int) (S1 Int) (T1 Int) (U1 Int) (V1 Int) ) 
    (=>
      (and
        (INV_MAIN_1 I J K L M N O P Q R)
        (INV_MAIN_1 M1 N1 O1 P1 Q1 R1 S1 T1 U1 V1)
        (INV_MAIN_1 C1 D1 E1 F1 G1 H1 I1 J1 K1 L1)
        (INV_MAIN_1 S T U V W X Y Z A1 B1)
        (let ((a!1 (not (= (+ S1 E (* (- 1) G)) 0))))
  (and (= (+ Q (* (- 1) S1) (* (- 1) E)) 0)
       (= (+ P (* (- 1) F)) (- 1))
       (= (+ K (* (- 1) B)) (- 1))
       (= (+ J1 (* (- 1) F)) (- 1))
       (= (+ E1 (* (- 1) B)) (- 1))
       (= (+ Z (* (- 1) F)) (- 1))
       (= (+ U (* (- 1) B)) (- 1))
       (= (+ T1 (* (- 1) F)) (- 1))
       (= (+ O1 (* (- 1) B)) (- 1))
       (= O S1)
       (= N E)
       (= M 0)
       (= L M1)
       (= J A)
       (= I M1)
       (= N1 A)
       (= L1 0)
       (= I1 S1)
       (= H1 E)
       (= G1 D)
       (= F1 C)
       (= D1 A)
       (= C1 M1)
       (= B1 H)
       (= A1 G)
       (= Y S1)
       (= X E)
       (= W 0)
       (= V M1)
       (= T A)
       (= S M1)
       (= R 0)
       (= V1 H)
       (= U1 G)
       (= R1 E)
       (= Q1 D)
       (= P1 C)
       (or (= H 0) a!1)
       (or (not (= M1 C)) (= D 0))
       (= (+ K1 (* (- 1) S1) (* (- 1) E)) 0)))
      )
      (INV_MAIN_0 A B C D E F G H)
    )
  )
)
(assert
  (forall ( (A Int) (B Int) (C Int) (D Int) (E Int) (F Int) (G Int) (H Int) (I Int) (J Int) (K Int) (L Int) (M Int) (N Int) (O Int) (P Int) (Q Int) (R Int) (S Int) (T Int) (U Int) (V Int) (W Int) (X Int) (Y Int) (Z Int) (A1 Int) (B1 Int) (C1 Int) (D1 Int) (E1 Int) (F1 Int) (G1 Int) (H1 Int) (I1 Int) (J1 Int) (K1 Int) (L1 Int) (M1 Int) (N1 Int) (O1 Int) (P1 Int) (Q1 Int) (R1 Int) (S1 Int) (T1 Int) (U1 Int) (V1 Int) (W1 Int) (X1 Int) (Y1 Int) (Z1 Int) (A2 Int) (B2 Int) (C2 Int) (D2 Int) (E2 Int) (F2 Int) (G2 Int) (H2 Int) (I2 Int) (J2 Int) (K2 Int) (L2 Int) (M2 Int) (N2 Int) (O2 Int) (P2 Int) (Q2 Int) (R2 Int) (S2 Int) (T2 Int) (U2 Int) (V2 Int) (W2 Int) (X2 Int) (Y2 Int) (Z2 Int) (A3 Int) (B3 Int) (C3 Int) (D3 Int) (E3 Int) (F3 Int) (G3 Int) (H3 Int) (I3 Int) (J3 Int) (K3 Int) (L3 Int) (M3 Int) (N3 Int) (O3 Int) (P3 Int) (Q3 Int) (R3 Int) (S3 Int) (T3 Int) (U3 Int) (V3 Int) ) 
    (=>
      (and
        (INV_MAIN_1 K L M N O P Q R S T)
        (INV_MAIN_1 M3 N3 O3 P3 Q3 R3 S3 T3 U3 V3)
        (INV_MAIN_1 C3 D3 E3 F3 G3 H3 I3 J3 K3 L3)
        (INV_MAIN_1 S2 T2 U2 V2 W2 X2 Y2 Z2 A3 B3)
        (INV_MAIN_1 I2 J2 K2 L2 M2 N2 O2 P2 Q2 R2)
        (INV_MAIN_1 Y1 Z1 A2 B2 C2 D2 E2 F2 G2 H2)
        (INV_MAIN_1 O1 P1 Q1 R1 S1 T1 U1 V1 W1 X1)
        (INV_MAIN_1 E1 F1 G1 H1 I1 J1 K1 L1 M1 N1)
        (INV_MAIN_1 U V W X Y Z A1 B1 C1 D1)
        (let ((a!1 (not (= (+ C (* (- 1) A)) (- 1))))
      (a!2 (not (= (+ D (* (- 1) A)) (- 1))))
      (a!3 (not (= (+ I (* (- 1) G) (* (- 1) F)) (- 1))))
      (a!4 (not (= (+ H (* (- 1) G) (* (- 1) F)) (- 1)))))
  (and (= (+ W1 (* (- 1) G) (* (- 1) F)) (- 1))
       (= (+ S (* (- 1) G) (* (- 1) F)) (- 1))
       (= (+ A3 (* (- 1) G) (* (- 1) F)) (- 1))
       a!1
       (= (+ E2 (* (- 1) G)) (- 1))
       (= (+ Y1 (* (- 1) A)) (- 1))
       (= (+ U1 (* (- 1) G)) (- 1))
       (= (+ O1 (* (- 1) A)) (- 1))
       (= (+ K1 (* (- 1) G)) (- 1))
       (= (+ H1 (* (- 1) A)) (- 1))
       (= (+ E1 (* (- 1) A)) (- 1))
       (= (+ A1 (* (- 1) G)) (- 1))
       (= (+ X (* (- 1) A)) (- 1))
       (= (+ U (* (- 1) A)) (- 1))
       (= (+ Q (* (- 1) G)) (- 1))
       (= (+ N (* (- 1) A)) (- 1))
       (= (+ K (* (- 1) A)) (- 1))
       (= (+ O2 (* (- 1) G)) (- 1))
       (= (+ I2 (* (- 1) A)) (- 1))
       (= (+ M3 (* (- 1) A)) (- 1))
       (= (+ I3 (* (- 1) G)) (- 1))
       (= (+ C3 (* (- 1) A)) (- 1))
       (= (+ Y2 (* (- 1) G)) (- 1))
       (= (+ S2 (* (- 1) A)) (- 1))
       (= (+ S3 (* (- 1) G)) (- 1))
       (= F2 H)
       (= D2 F)
       (= C2 M2)
       (= B2 C)
       (= A2 C)
       (= Z1 B)
       (= X1 B3)
       (= V1 H)
       (= T1 F)
       (= S1 M2)
       (= R1 C)
       (= Q1 C)
       (= P1 B)
       (= N1 J)
       (= M1 I)
       (= L1 H)
       (= J1 F)
       (not (= I1 0))
       (not (= I1 M2))
       (= G1 C)
       (= F1 B)
       (= D1 L3)
       (= C1 H)
       (= B1 H)
       (= Z F)
       (= Y I1)
       (= W C)
       (= V B)
       (= T B3)
       (= R H)
       (= P F)
       (= O I1)
       (= M C)
       (= L B)
       (= P2 H)
       (= N2 F)
       (= L2 C)
       (= K2 C)
       (= J2 B)
       (= H2 L3)
       (= G2 H)
       (= N3 B)
       (= K3 H)
       (= J3 H)
       (= H3 F)
       (= G3 E)
       (= F3 D)
       (= E3 C)
       (= D3 B)
       (not (= B3 0))
       (not (= B3 L3))
       (= Z2 H)
       (= X2 F)
       (= W2 E)
       (= V2 D)
       (= U2 C)
       (= T2 B)
       (= R2 J)
       (= Q2 I)
       (= V3 J)
       (= U3 I)
       (= T3 H)
       (= R3 F)
       (= Q3 E)
       (= P3 D)
       (= O3 C)
       (or (= I1 E) a!2)
       (or (= M2 E) (not (= D C)))
       (or (= L3 J) (not (= I H)))
       (or (= B3 J) a!3)
       a!4))
      )
      (INV_MAIN_1 A B C D E F G H I J)
    )
  )
)
(assert
  (forall ( (A Int) (B Int) (C Int) (D Int) (E Int) (F Int) (G Int) (H Int) (I Int) (J Int) (K Int) (L Int) (M Int) (N Int) (O Int) (P Int) (Q Int) (R Int) (S Int) (T Int) (U Int) (V Int) (W Int) (X Int) (Y Int) (Z Int) (A1 Int) (B1 Int) (C1 Int) (D1 Int) (E1 Int) (F1 Int) (G1 Int) (H1 Int) (I1 Int) (J1 Int) (K1 Int) (L1 Int) (M1 Int) (N1 Int) (O1 Int) (P1 Int) (Q1 Int) (R1 Int) (S1 Int) (T1 Int) (U1 Int) (V1 Int) (W1 Int) (X1 Int) (Y1 Int) (Z1 Int) (A2 Int) (B2 Int) (C2 Int) (D2 Int) (E2 Int) (F2 Int) (G2 Int) (H2 Int) (I2 Int) (J2 Int) (K2 Int) (L2 Int) (M2 Int) (N2 Int) (O2 Int) (P2 Int) (Q2 Int) (R2 Int) (S2 Int) (T2 Int) (U2 Int) (V2 Int) (W2 Int) (X2 Int) (Y2 Int) (Z2 Int) (A3 Int) (B3 Int) (C3 Int) (D3 Int) (E3 Int) (F3 Int) (G3 Int) (H3 Int) (I3 Int) (J3 Int) (K3 Int) (L3 Int) (M3 Int) (N3 Int) (O3 Int) (P3 Int) (Q3 Int) (R3 Int) (S3 Int) (T3 Int) (U3 Int) (V3 Int) ) 
    (=>
      (and
        (INV_MAIN_1 K L M N O P Q R S T)
        (INV_MAIN_1 M3 N3 O3 P3 Q3 R3 S3 T3 U3 V3)
        (INV_MAIN_1 C3 D3 E3 F3 G3 H3 I3 J3 K3 L3)
        (INV_MAIN_1 S2 T2 U2 V2 W2 X2 Y2 Z2 A3 B3)
        (INV_MAIN_1 I2 J2 K2 L2 M2 N2 O2 P2 Q2 R2)
        (INV_MAIN_1 Y1 Z1 A2 B2 C2 D2 E2 F2 G2 H2)
        (INV_MAIN_1 O1 P1 Q1 R1 S1 T1 U1 V1 W1 X1)
        (INV_MAIN_1 E1 F1 G1 H1 I1 J1 K1 L1 M1 N1)
        (INV_MAIN_1 U V W X Y Z A1 B1 C1 D1)
        (let ((a!1 (not (= (+ C (* (- 1) A)) (- 1))))
      (a!2 (not (= (+ D (* (- 1) A)) (- 1))))
      (a!3 (not (= (+ I (* (- 1) G) (* (- 1) F)) 0))))
  (and (= (+ S (* (- 1) G) (* (- 1) F)) 0)
       (= (+ A3 (* (- 1) G) (* (- 1) F)) 0)
       a!1
       (= (+ Y1 (* (- 1) A)) (- 1))
       (= (+ O1 (* (- 1) A)) (- 1))
       (= (+ H1 (* (- 1) A)) (- 1))
       (= (+ E1 (* (- 1) A)) (- 1))
       (= (+ X (* (- 1) A)) (- 1))
       (= (+ U (* (- 1) A)) (- 1))
       (= (+ N (* (- 1) A)) (- 1))
       (= (+ K (* (- 1) A)) (- 1))
       (= (+ I2 (* (- 1) A)) (- 1))
       (= (+ M3 (* (- 1) A)) (- 1))
       (= (+ C3 (* (- 1) A)) (- 1))
       (= (+ S2 (* (- 1) A)) (- 1))
       (= F2 H)
       (= E2 G)
       (= D2 F)
       (= C2 M2)
       (= B2 C)
       (= A2 C)
       (= Z1 B)
       (= X1 L3)
       (= V1 H)
       (= U1 G)
       (= T1 F)
       (= S1 M2)
       (= R1 C)
       (= Q1 C)
       (= P1 B)
       (= N1 J)
       (= M1 I)
       (= L1 H)
       (= K1 G)
       (= J1 F)
       (not (= I1 0))
       (not (= I1 M2))
       (= G1 C)
       (= F1 B)
       (= D1 L3)
       (= C1 H)
       (= B1 H)
       (= A1 G)
       (= Z F)
       (= Y I1)
       (= W C)
       (= V B)
       (= T L3)
       (= R H)
       (= Q G)
       (= P F)
       (= O I1)
       (= M C)
       (= L B)
       (= P2 H)
       (= O2 G)
       (= N2 F)
       (= L2 C)
       (= K2 C)
       (= J2 B)
       (= H2 L3)
       (= G2 H)
       (= N3 B)
       (= K3 H)
       (= J3 H)
       (= I3 G)
       (= H3 F)
       (= G3 E)
       (= F3 D)
       (= E3 C)
       (= D3 B)
       (= B3 L3)
       (= Z2 H)
       (= Y2 G)
       (= X2 F)
       (= W2 E)
       (= V2 D)
       (= U2 C)
       (= T2 B)
       (= R2 J)
       (= Q2 I)
       (= V3 J)
       (= U3 I)
       (= T3 H)
       (= S3 G)
       (= R3 F)
       (= Q3 E)
       (= P3 D)
       (= O3 C)
       (or (= I1 E) a!2)
       (or (= M2 E) (not (= D C)))
       (or (= L3 J) a!3)
       (or (= L3 J) (not (= I H)))
       (= (+ W1 (* (- 1) G) (* (- 1) F)) 0)))
      )
      (INV_MAIN_1 A B C D E F G H I J)
    )
  )
)
(assert
  (forall ( (A Int) (B Int) (C Int) (D Int) (E Int) (F Int) (G Int) (H Int) (I Int) (J Int) (K Int) (L Int) (M Int) (N Int) (O Int) (P Int) (Q Int) (R Int) (S Int) (T Int) (U Int) (V Int) (W Int) (X Int) (Y Int) (Z Int) (A1 Int) (B1 Int) (C1 Int) (D1 Int) (E1 Int) (F1 Int) (G1 Int) (H1 Int) (I1 Int) (J1 Int) (K1 Int) (L1 Int) (M1 Int) (N1 Int) (O1 Int) (P1 Int) (Q1 Int) (R1 Int) (S1 Int) (T1 Int) (U1 Int) (V1 Int) (W1 Int) (X1 Int) (Y1 Int) (Z1 Int) (A2 Int) (B2 Int) (C2 Int) (D2 Int) (E2 Int) (F2 Int) (G2 Int) (H2 Int) (I2 Int) (J2 Int) (K2 Int) (L2 Int) (M2 Int) (N2 Int) (O2 Int) (P2 Int) (Q2 Int) (R2 Int) ) 
    (=>
      (and
        (INV_MAIN_1 K L M N O P Q R S T)
        (INV_MAIN_1 I2 J2 K2 L2 M2 N2 O2 P2 Q2 R2)
        (INV_MAIN_1 Y1 Z1 A2 B2 C2 D2 E2 F2 G2 H2)
        (INV_MAIN_1 O1 P1 Q1 R1 S1 T1 U1 V1 W1 X1)
        (INV_MAIN_1 E1 F1 G1 H1 I1 J1 K1 L1 M1 N1)
        (INV_MAIN_1 U V W X Y Z A1 B1 C1 D1)
        (let ((a!1 (not (= (+ C (* (- 1) A)) (- 1))))
      (a!2 (not (= (+ D (* (- 1) A)) (- 1))))
      (a!3 (not (= (+ I (* (- 1) G) (* (- 1) F)) 0))))
  (and (= (+ G2 (* (- 1) G) (* (- 1) F)) 0)
       (= (+ M1 (* (- 1) G) (* (- 1) F)) 0)
       (= (+ X (* (- 1) A)) (- 1))
       (= (+ U (* (- 1) A)) (- 1))
       (= (+ N (* (- 1) A)) (- 1))
       (= (+ K (* (- 1) A)) (- 1))
       a!1
       (= (+ E1 (* (- 1) A)) (- 1))
       (= (+ I2 (* (- 1) A)) (- 1))
       (= (+ Y1 (* (- 1) A)) (- 1))
       (= (+ O1 (* (- 1) A)) (- 1))
       (= B1 H)
       (= A1 G)
       (= Z F)
       (not (= Y 0))
       (not (= Y S1))
       (= W C)
       (= V B)
       (= T 0)
       (= R H)
       (= Q G)
       (= P F)
       (= O Y)
       (= M C)
       (= L B)
       (= L1 H)
       (= K1 G)
       (= J1 F)
       (= I1 S1)
       (= H1 C)
       (= G1 C)
       (= F1 B)
       (= D1 J)
       (= C1 I)
       (= J2 B)
       (= H2 0)
       (= F2 H)
       (= E2 G)
       (= D2 F)
       (= C2 E)
       (= B2 D)
       (= A2 C)
       (= Z1 B)
       (= X1 J)
       (= W1 I)
       (= V1 H)
       (= U1 G)
       (= T1 F)
       (= R1 C)
       (= Q1 C)
       (= P1 B)
       (= N1 0)
       (= R2 J)
       (= Q2 I)
       (= P2 H)
       (= O2 G)
       (= N2 F)
       (= M2 E)
       (= L2 D)
       (= K2 C)
       (or (= Y E) a!2)
       (or (= J 0) a!3)
       (or (= S1 E) (not (= D C)))
       (= (+ S (* (- 1) G) (* (- 1) F)) 0)))
      )
      (INV_MAIN_1 A B C D E F G H I J)
    )
  )
)
(assert
  (forall ( (A Int) (B Int) (C Int) (D Int) (E Int) (F Int) (G Int) (H Int) (I Int) (J Int) (K Int) (L Int) (M Int) (N Int) (O Int) (P Int) (Q Int) (R Int) (S Int) (T Int) (U Int) (V Int) (W Int) (X Int) (Y Int) (Z Int) (A1 Int) (B1 Int) (C1 Int) (D1 Int) (E1 Int) (F1 Int) (G1 Int) (H1 Int) (I1 Int) (J1 Int) (K1 Int) (L1 Int) (M1 Int) (N1 Int) (O1 Int) (P1 Int) (Q1 Int) (R1 Int) (S1 Int) (T1 Int) (U1 Int) (V1 Int) (W1 Int) (X1 Int) (Y1 Int) (Z1 Int) (A2 Int) (B2 Int) (C2 Int) (D2 Int) (E2 Int) (F2 Int) (G2 Int) (H2 Int) (I2 Int) (J2 Int) (K2 Int) (L2 Int) (M2 Int) (N2 Int) (O2 Int) (P2 Int) (Q2 Int) (R2 Int) (S2 Int) (T2 Int) (U2 Int) (V2 Int) (W2 Int) (X2 Int) (Y2 Int) (Z2 Int) (A3 Int) (B3 Int) (C3 Int) (D3 Int) (E3 Int) (F3 Int) (G3 Int) (H3 Int) (I3 Int) (J3 Int) (K3 Int) (L3 Int) (M3 Int) (N3 Int) (O3 Int) (P3 Int) (Q3 Int) (R3 Int) (S3 Int) (T3 Int) (U3 Int) (V3 Int) ) 
    (=>
      (and
        (INV_MAIN_1 K L M N O P Q R S T)
        (INV_MAIN_1 M3 N3 O3 P3 Q3 R3 S3 T3 U3 V3)
        (INV_MAIN_1 C3 D3 E3 F3 G3 H3 I3 J3 K3 L3)
        (INV_MAIN_1 S2 T2 U2 V2 W2 X2 Y2 Z2 A3 B3)
        (INV_MAIN_1 I2 J2 K2 L2 M2 N2 O2 P2 Q2 R2)
        (INV_MAIN_1 Y1 Z1 A2 B2 C2 D2 E2 F2 G2 H2)
        (INV_MAIN_1 O1 P1 Q1 R1 S1 T1 U1 V1 W1 X1)
        (INV_MAIN_1 E1 F1 G1 H1 I1 J1 K1 L1 M1 N1)
        (INV_MAIN_1 U V W X Y Z A1 B1 C1 D1)
        (let ((a!1 (not (= (+ I (* (- 1) G) (* (- 1) F)) (- 1))))
      (a!2 (not (= (+ H (* (- 1) G) (* (- 1) F)) (- 1)))))
  (and (= (+ W1 (* (- 1) G) (* (- 1) F)) (- 1))
       (= (+ S (* (- 1) G) (* (- 1) F)) (- 1))
       (= (+ A3 (* (- 1) G) (* (- 1) F)) (- 1))
       (= (+ E2 (* (- 1) G)) (- 1))
       (= (+ U1 (* (- 1) G)) (- 1))
       (= (+ K1 (* (- 1) G)) (- 1))
       (= (+ A1 (* (- 1) G)) (- 1))
       (= (+ Q (* (- 1) G)) (- 1))
       (= (+ O2 (* (- 1) G)) (- 1))
       (= (+ I3 (* (- 1) G)) (- 1))
       (= (+ Y2 (* (- 1) G)) (- 1))
       (= (+ S3 (* (- 1) G)) (- 1))
       (= F2 H)
       (= D2 F)
       (= C2 M2)
       (= B2 C)
       (= A2 C)
       (= Z1 B)
       (= Y1 A)
       (= X1 B3)
       (= V1 H)
       (= T1 F)
       (= S1 M2)
       (= R1 C)
       (= Q1 C)
       (= P1 B)
       (= O1 A)
       (= N1 J)
       (= M1 I)
       (= L1 H)
       (= J1 F)
       (= I1 M2)
       (= H1 A)
       (= G1 C)
       (= F1 B)
       (= E1 A)
       (= D1 L3)
       (= C1 H)
       (= B1 H)
       (= Z F)
       (= Y M2)
       (= X A)
       (= W C)
       (= V B)
       (= U A)
       (= T B3)
       (= R H)
       (= P F)
       (= O M2)
       (= N A)
       (= M C)
       (= L B)
       (= K A)
       (= P2 H)
       (= N2 F)
       (= L2 C)
       (= K2 C)
       (= J2 B)
       (= I2 A)
       (= H2 L3)
       (= G2 H)
       (= N3 B)
       (= M3 A)
       (= K3 H)
       (= J3 H)
       (= H3 F)
       (= G3 E)
       (= F3 D)
       (= E3 C)
       (= D3 B)
       (= C3 A)
       (not (= B3 0))
       (not (= B3 L3))
       (= Z2 H)
       (= X2 F)
       (= W2 E)
       (= V2 D)
       (= U2 C)
       (= T2 B)
       (= S2 A)
       (= R2 J)
       (= Q2 I)
       (= V3 J)
       (= U3 I)
       (= T3 H)
       (= R3 F)
       (= Q3 E)
       (= P3 D)
       (= O3 C)
       (or (= M2 E) (not (= D C)))
       (or (= M2 E) (not (= D A)))
       (or (= L3 J) (not (= I H)))
       (or (= B3 J) a!1)
       a!2))
      )
      (INV_MAIN_1 A B C D E F G H I J)
    )
  )
)
(assert
  (forall ( (A Int) (B Int) (C Int) (D Int) (E Int) (F Int) (G Int) (H Int) (I Int) (J Int) (K Int) (L Int) (M Int) (N Int) (O Int) (P Int) (Q Int) (R Int) (S Int) (T Int) (U Int) (V Int) (W Int) (X Int) (Y Int) (Z Int) (A1 Int) (B1 Int) (C1 Int) (D1 Int) (E1 Int) (F1 Int) (G1 Int) (H1 Int) (I1 Int) (J1 Int) (K1 Int) (L1 Int) (M1 Int) (N1 Int) (O1 Int) (P1 Int) (Q1 Int) (R1 Int) (S1 Int) (T1 Int) (U1 Int) (V1 Int) (W1 Int) (X1 Int) (Y1 Int) (Z1 Int) (A2 Int) (B2 Int) (C2 Int) (D2 Int) (E2 Int) (F2 Int) (G2 Int) (H2 Int) (I2 Int) (J2 Int) (K2 Int) (L2 Int) (M2 Int) (N2 Int) (O2 Int) (P2 Int) (Q2 Int) (R2 Int) ) 
    (=>
      (and
        (INV_MAIN_1 K L M N O P Q R S T)
        (INV_MAIN_1 I2 J2 K2 L2 M2 N2 O2 P2 Q2 R2)
        (INV_MAIN_1 Y1 Z1 A2 B2 C2 D2 E2 F2 G2 H2)
        (INV_MAIN_1 O1 P1 Q1 R1 S1 T1 U1 V1 W1 X1)
        (INV_MAIN_1 E1 F1 G1 H1 I1 J1 K1 L1 M1 N1)
        (INV_MAIN_1 U V W X Y Z A1 B1 C1 D1)
        (let ((a!1 (not (= (+ H (* (- 1) G) (* (- 1) F)) (- 1))))
      (a!2 (not (= (+ I (* (- 1) G) (* (- 1) F)) (- 1)))))
  (and a!1
       (= (+ W1 (* (- 1) G) (* (- 1) F)) (- 1))
       (= (+ A1 (* (- 1) G)) (- 1))
       (= (+ Q (* (- 1) G)) (- 1))
       (= (+ K1 (* (- 1) G)) (- 1))
       (= (+ E2 (* (- 1) G)) (- 1))
       (= (+ U1 (* (- 1) G)) (- 1))
       (= (+ O2 (* (- 1) G)) (- 1))
       (= B1 H)
       (= Z F)
       (= Y 0)
       (= X A)
       (= W C)
       (= V B)
       (= U A)
       (= T X1)
       (= R H)
       (= P F)
       (= O 0)
       (= N A)
       (= M C)
       (= L B)
       (= K A)
       (= L1 H)
       (= J1 F)
       (= I1 0)
       (= H1 A)
       (= G1 C)
       (= F1 B)
       (= E1 A)
       (= D1 H2)
       (= C1 H)
       (= J2 B)
       (= I2 A)
       (= G2 H)
       (= F2 H)
       (= D2 F)
       (= C2 E)
       (= B2 D)
       (= A2 C)
       (= Z1 B)
       (= Y1 A)
       (not (= X1 0))
       (not (= X1 H2))
       (= V1 H)
       (= T1 F)
       (= S1 E)
       (= R1 D)
       (= Q1 C)
       (= P1 B)
       (= O1 A)
       (= N1 J)
       (= M1 I)
       (= R2 J)
       (= Q2 I)
       (= P2 H)
       (= N2 F)
       (= M2 E)
       (= L2 D)
       (= K2 C)
       (or (not (= D A)) (= E 0))
       (or (= H2 J) (not (= I H)))
       (or (= X1 J) a!2)
       (= (+ S (* (- 1) G) (* (- 1) F)) (- 1))))
      )
      (INV_MAIN_1 A B C D E F G H I J)
    )
  )
)
(assert
  (forall ( (A Int) (B Int) (C Int) (D Int) (E Int) (F Int) (G Int) (H Int) ) 
    (=>
      (and
        (INV_MAIN_0 A B C D E F G H)
        (and (= G F) (= D 0) (= C B) (not (= H 0)))
      )
      CHC_COMP_FALSE
    )
  )
)
(assert
  (forall ( (A Int) (B Int) (C Int) (D Int) (E Int) (F Int) (G Int) (H Int) ) 
    (=>
      (and
        (INV_MAIN_0 A B C D E F G H)
        (and (= G F) (not (= D 0)) (= C B) (= H 0))
      )
      CHC_COMP_FALSE
    )
  )
)
(assert
  (forall ( (A Int) (B Int) (C Int) (D Int) (E Int) (F Int) (G Int) (H Int) (I Int) (J Int) (K Int) (L Int) (M Int) (N Int) (O Int) (P Int) (Q Int) (R Int) (S Int) (T Int) (U Int) (V Int) (W Int) (X Int) (Y Int) (Z Int) (A1 Int) (B1 Int) (C1 Int) (D1 Int) (E1 Int) (F1 Int) ) 
    (=>
      (and
        (INV_MAIN_0 A B C D E F G H)
        (INV_MAIN_0 Y Z A1 B1 C1 D1 E1 F1)
        (INV_MAIN_0 Q R S T U V W X)
        (INV_MAIN_0 I J K L M N O P)
        (and (= W D1)
     (= V D1)
     (= U C1)
     (= T B1)
     (= S A1)
     (= R Z)
     (= Q Y)
     (= P F1)
     (= O A1)
     (= N D1)
     (= M C1)
     (= L 0)
     (= K Z)
     (= J Z)
     (= I Y)
     (= H 0)
     (= G D1)
     (= F D1)
     (= E C1)
     (= D 0)
     (= C Z)
     (= B Z)
     (= A Y)
     (not (= F1 B1))
     (= E1 A1)
     (or (not (= D1 A1)) (= F1 0))
     (or (not (= A1 Z)) (= B1 0))
     (= X 0))
      )
      CHC_COMP_FALSE
    )
  )
)
(assert
  (forall ( (A Int) (B Int) (C Int) (D Int) (E Int) (F Int) (G Int) (H Int) (I Int) (J Int) (K Int) (L Int) (M Int) (N Int) (O Int) (P Int) (Q Int) (R Int) (S Int) (T Int) ) 
    (=>
      (and
        (INV_MAIN_1 A B C D E F G H I J)
        (INV_MAIN_1 K L M N O P Q R S T)
        (and (= (+ S (* (- 1) Q) (* (- 1) P)) 0)
     (= J 0)
     (= H R)
     (= G Q)
     (= F P)
     (= E O)
     (= D K)
     (= C M)
     (= B L)
     (= A K)
     (= T 0)
     (not (= O 0))
     (= N M)
     (= (+ I (* (- 1) Q) (* (- 1) P)) 0))
      )
      CHC_COMP_FALSE
    )
  )
)
(assert
  (forall ( (A Int) (B Int) (C Int) (D Int) (E Int) (F Int) (G Int) (H Int) (I Int) (J Int) (K Int) (L Int) (M Int) (N Int) (O Int) (P Int) (Q Int) (R Int) (S Int) (T Int) ) 
    (=>
      (and
        (INV_MAIN_1 A B C D E F G H I J)
        (INV_MAIN_1 K L M N O P Q R S T)
        (and (= J T)
     (= H R)
     (= G Q)
     (= F P)
     (= E 0)
     (= D K)
     (= C M)
     (= B L)
     (= A K)
     (not (= T 0))
     (= S R)
     (= O 0)
     (= N K)
     (= (+ I (* (- 1) Q) (* (- 1) P)) 0))
      )
      CHC_COMP_FALSE
    )
  )
)
(assert
  (forall ( (A Int) (B Int) (C Int) (D Int) (E Int) (F Int) (G Int) (H Int) (I Int) (J Int) (K Int) (L Int) (M Int) (N Int) (O Int) (P Int) (Q Int) (R Int) (S Int) (T Int) (U Int) (V Int) (W Int) (X Int) (Y Int) (Z Int) (A1 Int) (B1 Int) (C1 Int) (D1 Int) (E1 Int) (F1 Int) (G1 Int) (H1 Int) (I1 Int) (J1 Int) (K1 Int) (L1 Int) (M1 Int) (N1 Int) (O1 Int) (P1 Int) (Q1 Int) (R1 Int) (S1 Int) (T1 Int) (U1 Int) (V1 Int) (W1 Int) (X1 Int) (Y1 Int) (Z1 Int) (A2 Int) (B2 Int) (C2 Int) (D2 Int) (E2 Int) (F2 Int) (G2 Int) (H2 Int) (I2 Int) (J2 Int) (K2 Int) (L2 Int) (M2 Int) (N2 Int) (O2 Int) (P2 Int) (Q2 Int) (R2 Int) (S2 Int) (T2 Int) (U2 Int) (V2 Int) (W2 Int) (X2 Int) (Y2 Int) (Z2 Int) (A3 Int) (B3 Int) (C3 Int) (D3 Int) (E3 Int) (F3 Int) (G3 Int) (H3 Int) (I3 Int) (J3 Int) (K3 Int) (L3 Int) ) 
    (=>
      (and
        (INV_MAIN_1 A B C D E F G H I J)
        (INV_MAIN_1 C3 D3 E3 F3 G3 H3 I3 J3 K3 L3)
        (INV_MAIN_1 S2 T2 U2 V2 W2 X2 Y2 Z2 A3 B3)
        (INV_MAIN_1 I2 J2 K2 L2 M2 N2 O2 P2 Q2 R2)
        (INV_MAIN_1 Y1 Z1 A2 B2 C2 D2 E2 F2 G2 H2)
        (INV_MAIN_1 O1 P1 Q1 R1 S1 T1 U1 V1 W1 X1)
        (INV_MAIN_1 E1 F1 G1 H1 I1 J1 K1 L1 M1 N1)
        (INV_MAIN_1 U V W X Y Z A1 B1 C1 D1)
        (INV_MAIN_1 K L M N O P Q R S T)
        (let ((a!1 (not (= (+ I3 H3 (* (- 1) F3)) 0))))
  (and (= (+ I (* (- 1) I3) (* (- 1) H3)) 0)
       (= (+ Q2 (* (- 1) I3) (* (- 1) H3)) 0)
       (= V1 J3)
       (= U1 I3)
       (= T1 H3)
       (= S1 C2)
       (= R1 E3)
       (= Q1 E3)
       (= P1 D3)
       (= O1 C3)
       (= N1 B3)
       (= L1 J3)
       (= K1 I3)
       (= J1 H3)
       (= I1 C2)
       (= H1 E3)
       (= G1 E3)
       (= F1 D3)
       (= E1 C3)
       (= D1 L3)
       (= C1 F3)
       (= B1 J3)
       (= A1 I3)
       (= Z H3)
       (= Y C2)
       (= X C3)
       (= W E3)
       (= V D3)
       (= U C3)
       (= T B3)
       (= S J3)
       (= R J3)
       (= Q I3)
       (= P H3)
       (= O C2)
       (= N C3)
       (= M E3)
       (= L D3)
       (= K C3)
       (= J B3)
       (= H J3)
       (= G I3)
       (= F H3)
       (= E C2)
       (= D C3)
       (= C E3)
       (= B D3)
       (= A C3)
       (= F2 J3)
       (= E2 I3)
       (= D2 H3)
       (not (= C2 0))
       (= B2 E3)
       (= A2 E3)
       (= Z1 D3)
       (= Y1 C3)
       (= X1 B3)
       (= W1 J3)
       (not (= B3 0))
       (= A3 J3)
       (= Z2 J3)
       (= Y2 I3)
       (= X2 H3)
       (= W2 G3)
       (= V2 F3)
       (= U2 E3)
       (= T2 D3)
       (= S2 C3)
       (= R2 B3)
       (= P2 J3)
       (= O2 I3)
       (= N2 H3)
       (= M2 G3)
       (= L2 F3)
       (= K2 E3)
       (= J2 D3)
       (= I2 C3)
       (= H2 L3)
       (= G2 F3)
       (not (= L3 G3))
       (= K3 F3)
       (or (= B3 L3) a!1)
       (or (not (= J3 F3)) (= B3 L3))
       (or (not (= F3 C3)) (= C2 G3))
       (or (not (= F3 E3)) (= C2 G3))
       (= (+ M1 (* (- 1) I3) (* (- 1) H3)) 0)))
      )
      CHC_COMP_FALSE
    )
  )
)
(assert
  (forall ( (A Int) (B Int) (C Int) (D Int) (E Int) (F Int) (G Int) (H Int) (I Int) (J Int) (K Int) (L Int) (M Int) (N Int) (O Int) (P Int) (Q Int) (R Int) (S Int) (T Int) (U Int) (V Int) (W Int) (X Int) (Y Int) (Z Int) (A1 Int) (B1 Int) (C1 Int) (D1 Int) (E1 Int) (F1 Int) (G1 Int) (H1 Int) (I1 Int) (J1 Int) (K1 Int) (L1 Int) (M1 Int) (N1 Int) ) 
    (=>
      (and
        (INV_MAIN_1 A B C D E F G H I J)
        (INV_MAIN_1 E1 F1 G1 H1 I1 J1 K1 L1 M1 N1)
        (INV_MAIN_1 U V W X Y Z A1 B1 C1 D1)
        (INV_MAIN_1 K L M N O P Q R S T)
        (and (= (+ I (* (- 1) K1) (* (- 1) J1)) 0)
     (= H L1)
     (= G K1)
     (= F J1)
     (= E I1)
     (= D E1)
     (= C G1)
     (= B F1)
     (= A E1)
     (= D1 N1)
     (= B1 L1)
     (= A1 K1)
     (= Z J1)
     (= Y I1)
     (= X G1)
     (= W G1)
     (= V F1)
     (= U E1)
     (= T N1)
     (= S L1)
     (= R L1)
     (= Q K1)
     (= P J1)
     (= O I1)
     (= N E1)
     (= M G1)
     (= L F1)
     (= K E1)
     (= J N1)
     (not (= N1 0))
     (= M1 L1)
     (not (= L1 G1))
     (not (= I1 0))
     (= H1 G1)
     (= (+ C1 (* (- 1) K1) (* (- 1) J1)) 0))
      )
      CHC_COMP_FALSE
    )
  )
)
(assert
  (forall ( (CHC_COMP_UNUSED Bool) ) 
    (=>
      (and
        CHC_COMP_FALSE
      )
      false
    )
  )
)

(check-sat)
(exit)
